cluster_editing/exact/simple_reductions/graphs/exact049.gr.metis
113 1896
4 5 6 9 15 26 32 38 39 42 43 45 72 73 77 80 84 85 
5 10 20 38 39 40 41 49 51 74 81 84 85 96 
5 7 8 10 12 16 23 25 26 27 32 38 46 54 58 61 65 67 81 82 87 89 93 103 104 111 
1 5 7 10 12 14 15 16 17 19 21 22 26 28 29 30 31 32 33 34 35 38 39 40 41 42 43 45 49 50 51 56 57 59 60 62 69 72 73 74 75 77 78 79 81 82 83 84 85 88 90 91 92 94 96 99 101 110 112 
1 2 3 4 6 9 10 12 14 15 16 17 19 20 21 22 26 28 29 30 31 32 33 34 35 36 38 39 40 41 42 43 50 51 61 63 69 72 73 74 78 79 80 81 82 84 85 86 88 90 92 94 96 101 110 
1 5 9 32 72 73 80 81 84 88 110 
3 4 10 12 14 16 17 19 21 22 26 28 29 30 31 32 33 34 35 36 37 38 39 40 42 43 45 48 51 52 56 59 60 62 72 74 78 79 81 82 84 88 90 91 92 93 94 96 99 101 110 
3 23 25 27 54 58 67 87 89 103 104 111 
1 5 6 12 19 31 32 39 73 77 80 82 84 85 90 101 
2 3 4 5 7 12 14 15 16 17 19 20 21 22 24 25 26 28 29 30 31 32 33 34 35 36 37 38 39 40 41 42 43 44 45 47 48 49 50 51 52 53 55 56 59 60 61 62 63 66 67 69 70 71 72 73 74 75 76 77 78 79 80 81 82 83 84 85 86 87 88 89 90 91 92 93 94 95 96 97 99 101 102 106 107 110 112 113 
14 28 33 39 40 43 45 61 72 84 96 97 108 
3 4 5 7 9 10 14 15 16 17 19 20 21 26 28 29 30 31 32 33 34 38 39 40 42 43 45 49 51 56 61 62 66 69 74 75 77 78 80 81 82 84 85 88 90 91 92 93 96 100 101 108 110 112 113 
37 44 47 48 52 55 61 64 70 71 76 85 105 112 
4 5 7 10 11 12 15 16 17 19 20 21 26 28 29 30 31 32 33 34 35 38 39 40 42 43 45 49 50 51 55 59 60 62 63 69 72 73 74 75 77 78 81 82 83 84 85 86 88 90 91 92 96 99 101 110 112 
1 4 5 10 12 14 16 17 21 28 29 30 31 32 33 35 39 40 41 42 43 45 49 50 51 56 59 60 61 63 72 73 74 77 78 80 81 82 84 85 88 96 97 99 101 108 
3 4 5 7 10 12 14 15 17 19 20 21 24 26 28 29 30 31 32 33 34 35 36 38 39 40 41 42 43 45 47 49 50 51 55 56 59 60 61 62 63 69 70 72 73 74 75 76 77 78 79 81 82 83 84 85 86 88 90 91 92 93 94 95 96 99 100 101 106 107 108 110 112 113 
4 5 7 10 12 14 15 16 19 20 21 26 28 29 30 31 32 33 35 36 38 39 40 41 42 43 45 50 51 56 59 60 69 72 74 75 77 78 81 82 83 84 85 88 90 91 94 96 100 101 102 106 110 
63 
4 5 7 9 10 12 14 16 17 20 21 26 28 29 31 32 33 34 35 38 39 40 42 43 45 49 50 51 56 61 62 66 67 72 74 77 78 80 81 82 84 85 87 88 90 91 92 94 96 100 101 104 108 110 111 
2 5 10 12 14 16 17 19 21 26 30 32 35 38 39 40 41 43 49 74 81 82 84 85 90 93 94 96 
4 5 7 10 12 14 15 16 17 19 20 28 29 30 31 32 33 35 36 39 40 42 43 45 59 60 61 62 72 73 74 77 78 79 80 81 82 84 90 91 92 96 102 110 112 
4 5 7 10 24 29 30 32 33 35 36 39 42 53 56 62 68 72 78 82 84 86 88 92 93 96 
3 8 25 27 46 54 58 65 67 87 89 103 104 111 
10 16 22 29 31 32 33 35 42 53 62 68 78 84 86 
3 8 10 23 27 32 46 54 58 65 67 74 87 89 96 103 104 111 
1 3 4 5 7 10 12 14 16 17 19 20 28 29 30 31 32 33 36 37 38 39 40 41 42 43 45 48 49 51 52 56 59 60 62 72 73 74 77 78 80 81 82 84 85 88 90 91 93 94 96 99 100 101 104 106 108 110 111 112 
3 8 23 25 46 54 58 65 67 87 89 103 104 111 
4 5 7 10 11 12 14 15 16 17 19 21 26 29 30 31 32 33 35 36 38 39 40 42 43 45 49 51 56 59 60 63 69 72 73 74 75 77 78 81 82 83 84 85 88 90 91 94 96 101 102 108 113 
4 5 7 10 12 14 15 16 17 19 21 22 24 26 28 30 31 32 33 34 35 36 38 39 40 42 43 45 50 51 56 59 60 62 72 73 74 77 78 79 81 82 84 86 88 90 91 92 93 94 96 98 99 101 110 112 
4 5 7 10 12 14 15 16 17 20 21 22 26 28 29 31 32 33 34 35 36 38 39 40 42 43 45 47 55 56 62 72 76 78 79 81 82 83 84 85 86 88 91 92 93 94 96 101 106 112 
4 5 7 9 10 12 14 15 16 17 19 21 24 26 28 29 30 32 33 34 35 38 39 40 42 43 44 45 56 62 72 74 77 78 79 81 82 83 84 85 88 90 92 93 94 96 101 106 112 
1 3 4 5 6 7 9 10 12 14 15 16 17 19 20 21 22 24 25 26 28 29 30 31 33 34 35 36 38 39 40 42 43 45 49 50 51 53 56 59 60 61 62 67 68 72 73 74 77 78 80 81 82 83 84 85 86 87 88 89 90 91 92 93 94 95 96 99 101 102 104 106 107 110 111 112 113 
4 5 7 10 11 12 14 15 16 17 19 21 22 24 26 28 29 30 31 32 34 35 36 38 39 40 42 43 45 50 51 56 59 60 61 63 69 72 73 74 75 77 78 79 80 81 82 83 84 85 88 90 91 92 93 94 96 97 99 101 106 107 110 112 113 
4 5 7 10 12 14 16 19 29 30 31 32 33 35 39 40 42 51 56 59 60 62 72 74 78 79 81 82 84 88 90 92 94 96 98 99 112 
4 5 7 10 14 15 16 17 19 20 21 22 24 28 29 30 31 32 33 34 36 39 40 42 43 44 45 47 51 55 56 61 62 70 72 74 76 77 78 79 81 82 83 84 85 86 88 90 92 93 94 96 101 106 112 
5 7 10 16 17 21 22 26 28 29 30 32 33 35 38 39 42 43 45 62 68 72 73 74 77 78 79 80 81 82 84 86 88 96 98 102 106 
7 10 13 26 38 43 44 47 48 50 52 55 64 70 71 76 82 93 96 105 112 
1 2 3 4 5 7 10 12 14 16 17 19 20 26 28 29 30 31 32 33 36 37 39 40 41 42 43 45 48 49 51 52 56 59 60 62 73 74 77 78 80 81 82 84 85 88 90 91 93 94 96 99 100 101 104 106 110 111 112 
1 2 4 5 7 9 10 11 12 14 15 16 17 19 20 21 22 26 28 29 30 31 32 33 34 35 36 38 40 41 42 43 45 49 50 51 56 59 60 61 62 63 69 72 73 74 75 77 78 79 80 81 82 83 84 85 86 88 90 91 92 94 95 96 97 99 101 107 108 110 112 113 
2 4 5 7 10 11 12 14 15 16 17 19 20 21 26 28 29 30 31 32 33 34 35 38 39 42 43 45 49 51 56 59 60 61 62 67 69 72 73 74 75 77 78 81 82 83 84 85 86 87 88 90 91 92 93 94 96 99 101 104 106 108 110 111 112 
2 4 5 10 15 16 17 20 26 38 39 49 74 81 82 85 96 
1 4 5 7 10 12 14 15 16 17 19 21 22 24 26 28 29 30 31 32 33 34 35 36 38 39 40 43 45 51 56 62 72 73 74 77 78 79 81 82 83 84 86 88 90 92 93 94 96 101 102 106 112 
1 4 5 7 10 11 12 14 15 16 17 19 20 21 26 28 29 30 31 32 33 35 36 37 38 39 40 42 45 48 49 50 52 61 62 63 69 71 72 73 74 77 78 80 81 82 83 84 85 88 90 91 92 93 94 95 96 97 101 102 106 107 108 109 110 112 113 
10 13 31 35 37 47 48 52 55 70 71 76 83 112 
1 4 7 10 11 12 14 15 16 17 19 21 26 28 29 30 31 32 33 35 36 38 39 40 42 43 49 50 51 56 59 60 63 69 72 73 74 75 77 78 81 82 83 84 85 88 91 94 96 99 101 102 107 108 112 113 
3 23 25 27 58 65 67 87 89 103 104 111 
10 13 16 30 35 37 44 48 52 55 62 64 70 71 76 85 105 112 
7 10 13 26 37 38 43 44 47 50 52 55 64 70 71 76 82 93 96 105 112 
2 4 10 12 14 15 16 19 20 26 28 32 38 39 40 41 43 45 69 74 81 82 84 85 90 96 112 
4 5 10 14 15 16 17 19 29 32 33 37 39 43 45 48 51 52 55 57 61 69 72 74 78 81 82 83 84 91 93 96 110 
2 4 5 7 10 12 14 15 16 17 19 26 28 29 32 33 34 35 38 39 40 42 45 50 56 57 69 72 74 75 78 81 82 83 84 90 91 94 96 101 110 
7 10 13 26 37 38 43 44 47 48 50 55 64 70 71 76 82 93 96 105 112 
10 22 24 32 62 68 82 86 
3 8 23 25 27 58 67 87 89 103 104 111 
10 13 14 16 30 35 37 44 47 48 50 52 64 70 71 76 85 93 96 105 112 
4 7 10 12 15 16 17 19 22 26 28 29 30 31 32 33 34 35 38 39 40 42 45 51 59 60 62 68 72 74 78 79 81 82 84 86 88 92 94 96 99 101 110 
4 50 51 75 91 96 
3 8 23 25 27 46 54 65 67 87 89 103 104 111 
4 7 10 14 15 16 17 21 26 28 29 32 33 34 38 39 40 45 56 60 72 74 78 81 82 84 88 91 92 94 96 98 99 
4 7 10 14 15 16 17 21 26 28 29 32 33 34 38 39 40 45 56 59 72 74 78 81 82 84 88 91 92 94 96 98 99 
3 5 10 11 12 13 15 16 19 21 32 33 35 39 40 43 50 63 67 72 73 78 80 81 82 84 87 88 95 96 97 101 107 108 109 112 113 
4 7 10 12 14 16 19 21 22 24 26 29 30 31 32 34 35 36 38 39 40 42 43 47 53 56 68 70 74 76 78 79 81 82 83 84 85 86 88 90 93 94 96 
5 10 14 15 16 18 28 33 39 43 45 61 74 81 82 95 96 107 113 
13 37 47 48 52 55 70 76 105 112 
3 23 25 27 46 58 67 87 89 103 104 111 
10 12 19 90 100 110 
3 8 10 19 23 25 27 32 40 46 54 58 61 65 74 82 84 87 89 96 103 104 111 
22 24 32 36 53 56 62 78 86 88 
4 5 10 12 14 16 17 28 33 39 40 43 45 49 50 51 72 74 81 82 84 96 100 
10 13 16 35 37 44 47 48 52 55 62 64 71 76 85 105 112 
10 13 37 43 44 47 48 52 55 70 76 81 93 
1 4 5 6 7 10 11 14 15 16 17 19 21 22 26 28 29 30 31 32 33 34 35 36 39 40 42 43 45 50 51 56 59 60 61 69 73 74 77 78 79 80 81 82 83 84 85 86 88 90 91 92 94 96 101 106 110 112 
1 4 5 6 9 10 14 15 16 21 26 28 29 32 33 36 38 39 40 42 43 45 61 72 74 77 80 81 82 84 85 88 90 94 96 101 
2 4 5 7 10 12 14 15 16 17 19 20 21 25 26 28 29 31 32 33 34 35 36 38 39 40 41 42 43 45 49 50 51 56 59 60 62 63 67 69 72 73 75 77 78 81 82 83 84 85 87 88 89 90 91 92 94 96 99 101 102 104 110 111 112 113 
4 10 12 14 16 17 28 33 39 40 45 51 57 74 81 82 84 91 96 110 
10 13 16 30 35 37 44 47 48 52 55 62 64 70 71 85 105 112 
1 4 9 10 12 14 15 16 17 19 21 26 28 29 31 32 33 35 36 38 39 40 42 43 45 72 73 74 78 80 82 84 90 96 102 112 
4 5 7 10 12 14 15 16 17 19 21 22 24 26 28 29 30 31 32 33 34 35 36 38 39 40 42 43 45 50 51 56 59 60 61 62 68 72 74 77 79 81 82 83 84 85 86 88 90 91 92 93 94 96 98 99 101 110 112 
4 5 7 10 16 21 29 30 31 33 34 35 36 39 42 56 62 72 78 82 84 88 92 94 96 101 
1 5 6 9 10 12 15 19 21 26 32 33 36 38 39 43 61 72 73 77 82 84 96 101 
2 3 4 5 6 7 10 12 14 15 16 17 19 20 21 26 28 29 30 31 32 33 34 35 36 38 39 40 41 42 43 45 49 50 51 56 59 60 61 62 63 69 71 72 73 74 75 78 82 83 84 85 88 90 91 92 93 94 96 98 99 101 102 104 106 110 111 112 113 
3 4 5 7 9 10 12 14 15 16 17 19 20 21 22 26 28 29 30 31 32 33 34 35 36 37 38 39 40 41 42 43 45 48 49 50 51 52 53 56 59 60 61 62 63 67 69 72 73 74 75 77 78 79 80 81 83 84 85 86 87 88 90 91 92 93 94 95 96 98 99 101 102 104 106 107 110 111 113 
4 10 14 16 17 28 30 31 32 33 35 39 40 42 43 44 45 50 51 62 72 74 78 81 82 84 86 90 91 96 101 
1 2 4 5 6 7 9 10 11 12 14 15 16 17 19 20 21 22 24 26 28 29 30 31 32 33 34 35 36 38 39 40 42 43 45 49 50 51 56 59 60 61 62 67 69 72 73 74 75 77 78 79 80 81 82 83 85 86 87 88 90 92 94 96 97 99 101 102 110 112 
1 2 4 5 9 10 12 13 14 15 16 17 19 20 26 28 30 31 32 33 35 38 39 40 41 43 45 47 49 55 62 70 72 73 74 76 78 81 82 84 90 93 96 110 112 
5 10 14 16 22 24 29 30 32 35 36 39 40 42 53 56 62 68 72 78 82 83 84 88 93 96 
3 8 10 19 23 25 27 32 40 46 54 58 61 65 67 74 82 84 89 96 103 104 111 
4 5 6 7 10 12 14 15 16 17 19 22 26 28 29 30 31 32 33 34 35 36 38 39 40 42 43 45 56 59 60 61 62 68 72 73 74 78 79 81 82 84 86 90 91 92 93 94 96 99 101 110 112 
3 8 10 23 25 27 32 46 54 58 65 67 74 87 96 103 104 111 
4 5 7 9 10 12 14 16 17 19 20 21 26 28 29 31 32 33 34 35 38 39 40 42 43 49 51 62 66 72 73 74 77 78 81 82 83 84 85 88 91 92 94 96 100 101 110 
4 7 10 12 14 16 17 19 21 26 28 29 30 32 33 38 39 40 43 45 50 51 57 59 60 72 74 75 78 81 82 83 88 90 96 110 
4 5 7 10 12 14 16 19 21 22 29 30 31 32 33 34 35 39 40 42 43 56 59 60 72 74 78 79 81 82 84 88 90 93 94 96 99 101 110 
3 7 10 12 16 20 22 26 29 30 31 32 33 35 37 38 40 42 43 48 50 52 55 62 71 78 81 82 85 86 88 92 94 96 104 111 112 
4 5 7 10 16 17 19 20 26 28 29 30 31 32 33 34 35 38 39 40 42 43 45 51 56 59 60 62 72 73 74 78 79 81 82 84 88 90 92 93 96 99 101 
10 16 32 39 43 61 63 82 107 108 109 113 
2 4 5 7 10 11 12 14 15 16 17 19 20 21 22 25 26 28 29 30 31 32 33 34 35 36 37 38 39 40 41 42 43 45 48 49 50 51 52 55 56 57 59 60 61 62 63 67 69 72 73 74 75 77 78 79 80 81 82 83 84 85 86 87 88 89 90 91 92 93 94 99 101 104 106 108 110 111 112 
10 11 15 33 39 43 61 84 101 108 
29 34 36 59 60 78 81 82 99 
4 7 10 14 15 16 26 29 32 33 34 38 39 40 45 56 59 60 74 78 81 82 84 88 92 94 96 98 
12 16 17 19 26 38 66 69 90 110 
4 5 7 9 10 12 14 15 16 17 19 26 28 29 30 31 32 33 35 38 39 40 42 43 45 51 56 61 72 73 74 78 79 80 81 82 83 84 88 90 92 94 96 97 106 110 112 113 
10 17 21 28 32 36 42 43 45 74 77 81 82 84 
3 8 23 25 27 46 54 58 65 67 87 89 104 111 
3 8 19 23 25 26 27 32 38 40 46 54 58 65 67 74 81 82 87 89 93 96 103 110 111 
13 37 47 48 52 55 64 70 76 112 
10 16 17 26 30 31 32 33 35 36 38 40 42 43 72 81 82 96 101 
10 16 32 33 39 43 45 61 63 82 95 109 113 
11 12 15 16 19 26 28 39 40 43 45 61 95 96 97 
43 61 95 107 
4 5 6 7 10 12 14 16 17 19 21 26 29 32 33 38 39 40 43 50 51 56 66 72 74 75 78 81 82 84 85 88 90 91 92 96 100 101 104 111 
3 8 19 23 25 26 27 32 38 40 46 54 58 65 67 74 81 82 87 89 93 96 103 104 110 
4 10 12 13 14 16 21 26 29 30 31 32 33 34 35 37 38 39 40 42 43 44 45 47 48 49 52 55 61 64 70 72 74 76 77 78 81 84 85 88 93 96 101 105 
10 12 16 28 32 33 39 43 45 61 63 74 81 82 95 101 107 
