instances/exact/exact049.gr
p cep 113 1896
1 4
1 5
1 6
1 9
1 15
1 26
1 32
1 38
1 39
1 42
1 43
1 45
1 72
1 73
1 77
1 80
1 84
1 85
2 5
2 10
2 20
2 38
2 39
2 40
2 41
2 49
2 51
2 74
2 81
2 84
2 85
2 96
3 5
3 7
3 8
3 10
3 12
3 16
3 23
3 25
3 26
3 27
3 32
3 38
3 46
3 54
3 58
3 61
3 65
3 67
3 81
3 82
3 87
3 89
3 93
3 103
3 104
3 111
4 5
4 7
4 10
4 12
4 14
4 15
4 16
4 17
4 19
4 21
4 22
4 26
4 28
4 29
4 30
4 31
4 32
4 33
4 34
4 35
4 38
4 39
4 40
4 41
4 42
4 43
4 45
4 49
4 50
4 51
4 56
4 57
4 59
4 60
4 62
4 69
4 72
4 73
4 74
4 75
4 77
4 78
4 79
4 81
4 82
4 83
4 84
4 85
4 88
4 90
4 91
4 92
4 94
4 96
4 99
4 101
4 110
4 112
5 6
5 9
5 10
5 12
5 14
5 15
5 16
5 17
5 19
5 20
5 21
5 22
5 26
5 28
5 29
5 30
5 31
5 32
5 33
5 34
5 35
5 36
5 38
5 39
5 40
5 41
5 42
5 43
5 50
5 51
5 61
5 63
5 69
5 72
5 73
5 74
5 78
5 79
5 80
5 81
5 82
5 84
5 85
5 86
5 88
5 90
5 92
5 94
5 96
5 101
5 110
6 9
6 32
6 72
6 73
6 80
6 81
6 84
6 88
6 110
7 10
7 12
7 14
7 16
7 17
7 19
7 21
7 22
7 26
7 28
7 29
7 30
7 31
7 32
7 33
7 34
7 35
7 36
7 37
7 38
7 39
7 40
7 42
7 43
7 45
7 48
7 51
7 52
7 56
7 59
7 60
7 62
7 72
7 74
7 78
7 79
7 81
7 82
7 84
7 88
7 90
7 91
7 92
7 93
7 94
7 96
7 99
7 101
7 110
8 23
8 25
8 27
8 54
8 58
8 67
8 87
8 89
8 103
8 104
8 111
9 12
9 19
9 31
9 32
9 39
9 73
9 77
9 80
9 82
9 84
9 85
9 90
9 101
10 12
10 14
10 15
10 16
10 17
10 19
10 20
10 21
10 22
10 24
10 25
10 26
10 28
10 29
10 30
10 31
10 32
10 33
10 34
10 35
10 36
10 37
10 38
10 39
10 40
10 41
10 42
10 43
10 44
10 45
10 47
10 48
10 49
10 50
10 51
10 52
10 53
10 55
10 56
10 59
10 60
10 61
10 62
10 63
10 66
10 67
10 69
10 70
10 71
10 72
10 73
10 74
10 75
10 76
10 77
10 78
10 79
10 80
10 81
10 82
10 83
10 84
10 85
10 86
10 87
10 88
10 89
10 90
10 91
10 92
10 93
10 94
10 95
10 96
10 97
10 99
10 101
10 102
10 106
10 107
10 110
10 112
10 113
11 14
11 28
11 33
11 39
11 40
11 43
11 45
11 61
11 72
11 84
11 96
11 97
11 108
12 14
12 15
12 16
12 17
12 19
12 20
12 21
12 26
12 28
12 29
12 30
12 31
12 32
12 33
12 34
12 38
12 39
12 40
12 42
12 43
12 45
12 49
12 51
12 56
12 61
12 62
12 66
12 69
12 74
12 75
12 77
12 78
12 80
12 81
12 82
12 84
12 85
12 88
12 90
12 91
12 92
12 93
12 96
12 100
12 101
12 108
12 110
12 112
12 113
13 37
13 44
13 47
13 48
13 52
13 55
13 61
13 64
13 70
13 71
13 76
13 85
13 105
13 112
14 15
14 16
14 17
14 19
14 20
14 21
14 26
14 28
14 29
14 30
14 31
14 32
14 33
14 34
14 35
14 38
14 39
14 40
14 42
14 43
14 45
14 49
14 50
14 51
14 55
14 59
14 60
14 62
14 63
14 69
14 72
14 73
14 74
14 75
14 77
14 78
14 81
14 82
14 83
14 84
14 85
14 86
14 88
14 90
14 91
14 92
14 96
14 99
14 101
14 110
14 112
15 16
15 17
15 21
15 28
15 29
15 30
15 31
15 32
15 33
15 35
15 39
15 40
15 41
15 42
15 43
15 45
15 49
15 50
15 51
15 56
15 59
15 60
15 61
15 63
15 72
15 73
15 74
15 77
15 78
15 80
15 81
15 82
15 84
15 85
15 88
15 96
15 97
15 99
15 101
15 108
16 17
16 19
16 20
16 21
16 24
16 26
16 28
16 29
16 30
16 31
16 32
16 33
16 34
16 35
16 36
16 38
16 39
16 40
16 41
16 42
16 43
16 45
16 47
16 49
16 50
16 51
16 55
16 56
16 59
16 60
16 61
16 62
16 63
16 69
16 70
16 72
16 73
16 74
16 75
16 76
16 77
16 78
16 79
16 81
16 82
16 83
16 84
16 85
16 86
16 88
16 90
16 91
16 92
16 93
16 94
16 95
16 96
16 99
16 100
16 101
16 106
16 107
16 108
16 110
16 112
16 113
17 19
17 20
17 21
17 26
17 28
17 29
17 30
17 31
17 32
17 33
17 35
17 36
17 38
17 39
17 40
17 41
17 42
17 43
17 45
17 50
17 51
17 56
17 59
17 60
17 69
17 72
17 74
17 75
17 77
17 78
17 81
17 82
17 83
17 84
17 85
17 88
17 90
17 91
17 94
17 96
17 100
17 101
17 102
17 106
17 110
18 63
19 20
19 21
19 26
19 28
19 29
19 31
19 32
19 33
19 34
19 35
19 38
19 39
19 40
19 42
19 43
19 45
19 49
19 50
19 51
19 56
19 61
19 62
19 66
19 67
19 72
19 74
19 77
19 78
19 80
19 81
19 82
19 84
19 85
19 87
19 88
19 90
19 91
19 92
19 94
19 96
19 100
19 101
19 104
19 108
19 110
19 111
20 21
20 26
20 30
20 32
20 35
20 38
20 39
20 40
20 41
20 43
20 49
20 74
20 81
20 82
20 84
20 85
20 90
20 93
20 94
20 96
21 28
21 29
21 30
21 31
21 32
21 33
21 35
21 36
21 39
21 40
21 42
21 43
21 45
21 59
21 60
21 61
21 62
21 72
21 73
21 74
21 77
21 78
21 79
21 80
21 81
21 82
21 84
21 90
21 91
21 92
21 96
21 102
21 110
21 112
22 24
22 29
22 30
22 32
22 33
22 35
22 36
22 39
22 42
22 53
22 56
22 62
22 68
22 72
22 78
22 82
22 84
22 86
22 88
22 92
22 93
22 96
23 25
23 27
23 46
23 54
23 58
23 65
23 67
23 87
23 89
23 103
23 104
23 111
24 29
24 31
24 32
24 33
24 35
24 42
24 53
24 62
24 68
24 78
24 84
24 86
25 27
25 32
25 46
25 54
25 58
25 65
25 67
25 74
25 87
25 89
25 96
25 103
25 104
25 111
26 28
26 29
26 30
26 31
26 32
26 33
26 36
26 37
26 38
26 39
26 40
26 41
26 42
26 43
26 45
26 48
26 49
26 51
26 52
26 56
26 59
26 60
26 62
26 72
26 73
26 74
26 77
26 78
26 80
26 81
26 82
26 84
26 85
26 88
26 90
26 91
26 93
26 94
26 96
26 99
26 100
26 101
26 104
26 106
26 108
26 110
26 111
26 112
27 46
27 54
27 58
27 65
27 67
27 87
27 89
27 103
27 104
27 111
28 29
28 30
28 31
28 32
28 33
28 35
28 36
28 38
28 39
28 40
28 42
28 43
28 45
28 49
28 51
28 56
28 59
28 60
28 63
28 69
28 72
28 73
28 74
28 75
28 77
28 78
28 81
28 82
28 83
28 84
28 85
28 88
28 90
28 91
28 94
28 96
28 101
28 102
28 108
28 113
29 30
29 31
29 32
29 33
29 34
29 35
29 36
29 38
29 39
29 40
29 42
29 43
29 45
29 50
29 51
29 56
29 59
29 60
29 62
29 72
29 73
29 74
29 77
29 78
29 79
29 81
29 82
29 84
29 86
29 88
29 90
29 91
29 92
29 93
29 94
29 96
29 98
29 99
29 101
29 110
29 112
30 31
30 32
30 33
30 34
30 35
30 36
30 38
30 39
30 40
30 42
30 43
30 45
30 47
30 55
30 56
30 62
30 72
30 76
30 78
30 79
30 81
30 82
30 83
30 84
30 85
30 86
30 88
30 91
30 92
30 93
30 94
30 96
30 101
30 106
30 112
31 32
31 33
31 34
31 35
31 38
31 39
31 40
31 42
31 43
31 44
31 45
31 56
31 62
31 72
31 74
31 77
31 78
31 79
31 81
31 82
31 83
31 84
31 85
31 88
31 90
31 92
31 93
31 94
31 96
31 101
31 106
31 112
32 33
32 34
32 35
32 36
32 38
32 39
32 40
32 42
32 43
32 45
32 49
32 50
32 51
32 53
32 56
32 59
32 60
32 61
32 62
32 67
32 68
32 72
32 73
32 74
32 77
32 78
32 80
32 81
32 82
32 83
32 84
32 85
32 86
32 87
32 88
32 89
32 90
32 91
32 92
32 93
32 94
32 95
32 96
32 99
32 101
32 102
32 104
32 106
32 107
32 110
32 111
32 112
32 113
33 34
33 35
33 36
33 38
33 39
33 40
33 42
33 43
33 45
33 50
33 51
33 56
33 59
33 60
33 61
33 63
33 69
33 72
33 73
33 74
33 75
33 77
33 78
33 79
33 80
33 81
33 82
33 83
33 84
33 85
33 88
33 90
33 91
33 92
33 93
33 94
33 96
33 97
33 99
33 101
33 106
33 107
33 110
33 112
33 113
34 35
34 39
34 40
34 42
34 51
34 56
34 59
34 60
34 62
34 72
34 74
34 78
34 79
34 81
34 82
34 84
34 88
34 90
34 92
34 94
34 96
34 98
34 99
34 112
35 36
35 39
35 40
35 42
35 43
35 44
35 45
35 47
35 51
35 55
35 56
35 61
35 62
35 70
35 72
35 74
35 76
35 77
35 78
35 79
35 81
35 82
35 83
35 84
35 85
35 86
35 88
35 90
35 92
35 93
35 94
35 96
35 101
35 106
35 112
36 38
36 39
36 42
36 43
36 45
36 62
36 68
36 72
36 73
36 74
36 77
36 78
36 79
36 80
36 81
36 82
36 84
36 86
36 88
36 96
36 98
36 102
36 106
37 38
37 43
37 44
37 47
37 48
37 50
37 52
37 55
37 64
37 70
37 71
37 76
37 82
37 93
37 96
37 105
37 112
38 39
38 40
38 41
38 42
38 43
38 45
38 48
38 49
38 51
38 52
38 56
38 59
38 60
38 62
38 73
38 74
38 77
38 78
38 80
38 81
38 82
38 84
38 85
38 88
38 90
38 91
38 93
38 94
38 96
38 99
38 100
38 101
38 104
38 106
38 110
38 111
38 112
39 40
39 41
39 42
39 43
39 45
39 49
39 50
39 51
39 56
39 59
39 60
39 61
39 62
39 63
39 69
39 72
39 73
39 74
39 75
39 77
39 78
39 79
39 80
39 81
39 82
39 83
39 84
39 85
39 86
39 88
39 90
39 91
39 92
39 94
39 95
39 96
39 97
39 99
39 101
39 107
39 108
39 110
39 112
39 113
40 42
40 43
40 45
40 49
40 51
40 56
40 59
40 60
40 61
40 62
40 67
40 69
40 72
40 73
40 74
40 75
40 77
40 78
40 81
40 82
40 83
40 84
40 85
40 86
40 87
40 88
40 90
40 91
40 92
40 93
40 94
40 96
40 99
40 101
40 104
40 106
40 108
40 110
40 111
40 112
41 49
41 74
41 81
41 82
41 85
41 96
42 43
42 45
42 51
42 56
42 62
42 72
42 73
42 74
42 77
42 78
42 79
42 81
42 82
42 83
42 84
42 86
42 88
42 90
42 92
42 93
42 94
42 96
42 101
42 102
42 106
42 112
43 45
43 48
43 49
43 50
43 52
43 61
43 62
43 63
43 69
43 71
43 72
43 73
43 74
43 77
43 78
43 80
43 81
43 82
43 83
43 84
43 85
43 88
43 90
43 91
43 92
43 93
43 94
43 95
43 96
43 97
43 101
43 102
43 106
43 107
43 108
43 109
43 110
43 112
43 113
44 47
44 48
44 52
44 55
44 70
44 71
44 76
44 83
44 112
45 49
45 50
45 51
45 56
45 59
45 60
45 63
45 69
45 72
45 73
45 74
45 75
45 77
45 78
45 81
45 82
45 83
45 84
45 85
45 88
45 91
45 94
45 96
45 99
45 101
45 102
45 107
45 108
45 112
45 113
46 58
46 65
46 67
46 87
46 89
46 103
46 104
46 111
47 48
47 52
47 55
47 62
47 64
47 70
47 71
47 76
47 85
47 105
47 112
48 50
48 52
48 55
48 64
48 70
48 71
48 76
48 82
48 93
48 96
48 105
48 112
49 69
49 74
49 81
49 82
49 84
49 85
49 90
49 96
49 112
50 51
50 52
50 55
50 57
50 61
50 69
50 72
50 74
50 78
50 81
50 82
50 83
50 84
50 91
50 93
50 96
50 110
51 56
51 57
51 69
51 72
51 74
51 75
51 78
51 81
51 82
51 83
51 84
51 90
51 91
51 94
51 96
51 101
51 110
52 55
52 64
52 70
52 71
52 76
52 82
52 93
52 96
52 105
52 112
53 62
53 68
53 82
53 86
54 58
54 67
54 87
54 89
54 103
54 104
54 111
55 64
55 70
55 71
55 76
55 85
55 93
55 96
55 105
55 112
56 59
56 60
56 62
56 68
56 72
56 74
56 78
56 79
56 81
56 82
56 84
56 86
56 88
56 92
56 94
56 96
56 99
56 101
56 110
57 75
57 91
57 96
58 65
58 67
58 87
58 89
58 103
58 104
58 111
59 60
59 72
59 74
59 78
59 81
59 82
59 84
59 88
59 91
59 92
59 94
59 96
59 98
59 99
60 72
60 74
60 78
60 81
60 82
60 84
60 88
60 91
60 92
60 94
60 96
60 98
60 99
61 63
61 67
61 72
61 73
61 78
61 80
61 81
61 82
61 84
61 87
61 88
61 95
61 96
61 97
61 101
61 107
61 108
61 109
61 112
61 113
62 68
62 70
62 74
62 76
62 78
62 79
62 81
62 82
62 83
62 84
62 85
62 86
62 88
62 90
62 93
62 94
62 96
63 74
63 81
63 82
63 95
63 96
63 107
63 113
64 70
64 76
64 105
64 112
65 67
65 87
65 89
65 103
65 104
65 111
66 90
66 100
66 110
67 74
67 82
67 84
67 87
67 89
67 96
67 103
67 104
67 111
68 78
68 86
68 88
69 72
69 74
69 81
69 82
69 84
69 96
69 100
70 71
70 76
70 85
70 105
70 112
71 76
71 81
71 93
72 73
72 74
72 77
72 78
72 79
72 80
72 81
72 82
72 83
72 84
72 85
72 86
72 88
72 90
72 91
72 92
72 94
72 96
72 101
72 106
72 110
72 112
73 74
73 77
73 80
73 81
73 82
73 84
73 85
73 88
73 90
73 94
73 96
73 101
74 75
74 77
74 78
74 81
74 82
74 83
74 84
74 85
74 87
74 88
74 89
74 90
74 91
74 92
74 94
74 96
74 99
74 101
74 102
74 104
74 110
74 111
74 112
74 113
75 81
75 82
75 84
75 91
75 96
75 110
76 85
76 105
76 112
77 78
77 80
77 82
77 84
77 90
77 96
77 102
77 112
78 79
78 81
78 82
78 83
78 84
78 85
78 86
78 88
78 90
78 91
78 92
78 93
78 94
78 96
78 98
78 99
78 101
78 110
78 112
79 82
79 84
79 88
79 92
79 94
79 96
79 101
80 82
80 84
80 96
80 101
81 82
81 83
81 84
81 85
81 88
81 90
81 91
81 92
81 93
81 94
81 96
81 98
81 99
81 101
81 102
81 104
81 106
81 110
81 111
81 112
81 113
82 83
82 84
82 85
82 86
82 87
82 88
82 90
82 91
82 92
82 93
82 94
82 95
82 96
82 98
82 99
82 101
82 102
82 104
82 106
82 107
82 110
82 111
82 113
83 84
83 86
83 90
83 91
83 96
83 101
84 85
84 86
84 87
84 88
84 90
84 92
84 94
84 96
84 97
84 99
84 101
84 102
84 110
84 112
85 90
85 93
85 96
85 110
85 112
86 88
86 93
86 96
87 89
87 96
87 103
87 104
87 111
88 90
88 91
88 92
88 93
88 94
88 96
88 99
88 101
88 110
88 112
89 96
89 103
89 104
89 111
90 91
90 92
90 94
90 96
90 100
90 101
90 110
91 96
91 110
92 93
92 94
92 96
92 99
92 101
92 110
93 94
93 96
93 104
93 111
93 112
94 96
94 99
94 101
95 107
95 108
95 109
95 113
96 99
96 101
96 104
96 106
96 108
96 110
96 111
96 112
97 101
97 108
98 99
100 110
101 106
101 110
101 112
101 113
103 104
103 111
104 110
104 111
105 112
107 109
107 113
110 111
